32      3       
10      10      10      
0       0       0       0       2       2       3       
1       0       1       1       2       4       5       
3       1       0       5       2       4       5       
7       0       2       3       2       6       7       
4       5       3       0       2       6       7       
4       7       0       7       1       8       
9       5       3       0       1       8       
6       0       4       6       1       9       
10      3       2       0       1       10      
1       3       4       0       1       11      
1       4       5       2       1       12      
6       5       4       0       1       13      
7       0       7       3       1       14      
10      4       4       0       2       15      16      
6       0       2       2       1       17      
7       5       0       3       1       17      
4       5       7       4       1       18      
4       6       4       8       1       19      
3       0       3       3       1       20      
10      2       7       3       1       21      
5       4       4       4       2       22      25      
8       1       4       0       1       23      
3       7       6       4       1       24      
2       5       0       6       1       26      
4       2       4       4       1       26      
2       3       0       4       1       27      
1       0       2       4       1       28      
2       3       0       3       1       29      
6       6       4       5       2       30      31      
4       2       5       0       1       32      
9       4       5       0       1       32      
0       0       0       0       0       
